c Standarized MaxSat Instance
c{
c "sha1sum": "b0d2430017615fa54bf9826ba460bd70515a4aab",
c "nvars": 42,
c "ncls": 400,
c "nhards": 0,
c "nhard_len_stats":
c    { "min": 0, "max": 0, "ave": 0.00,
c      "stddev": 0.00 },
c "nsofts": 400,
c "nsoft_len_stats":
c    { "min": 2, "max": 2, "ave": 2.00,
c      "stddev": 0.00 },
c "nsoft_wts": 10,
c "soft_wt_stats":
c    { "min": 1, "max": 10, "ave": 5.75,
c      "stddev": 2.98 }
c}
c------------------------------------------------------------
c File:  c-fat500-5.clq
c
c Source: Panos Pardalos pardalos@math.ufl.edu
c
c Reference: P. Berman and A. Pelc, Distributed Fault Diagnosis for
c            Multiprocessor Systems, Proceedings of the 20th Annual
c            International Symposium on Fault-Tolerant Computing
c            Newcastle, UK, 340-346 (1990)
c
p wcnf 42 400 2299
9 1 5 0
9 -1 -5 0
4 1 9 0
4 -1 -9 0
8 1 13 0
8 -1 -13 0
8 1 17 0
8 -1 -17 0
10 1 21 0
10 -1 -21 0
2 1 25 0
2 -1 -25 0
4 1 29 0
4 -1 -29 0
8 1 33 0
8 -1 -33 0
3 1 37 0
3 -1 -37 0
6 1 41 0
6 -1 -41 0
5 2 6 0
5 -2 -6 0
7 2 10 0
7 -2 -10 0
4 2 14 0
4 -2 -14 0
6 2 18 0
6 -2 -18 0
10 2 22 0
10 -2 -22 0
10 2 26 0
10 -2 -26 0
7 2 30 0
7 -2 -30 0
8 2 34 0
8 -2 -34 0
2 2 38 0
2 -2 -38 0
7 2 42 0
7 -2 -42 0
1 3 7 0
1 -3 -7 0
3 3 11 0
3 -3 -11 0
2 3 15 0
2 -3 -15 0
9 3 19 0
9 -3 -19 0
2 3 23 0
2 -3 -23 0
5 3 27 0
5 -3 -27 0
2 3 31 0
2 -3 -31 0
2 3 35 0
2 -3 -35 0
10 3 39 0
10 -3 -39 0
3 4 8 0
3 -4 -8 0
6 4 12 0
6 -4 -12 0
9 4 16 0
9 -4 -16 0
7 4 20 0
7 -4 -20 0
3 4 24 0
3 -4 -24 0
7 4 28 0
7 -4 -28 0
6 4 32 0
6 -4 -32 0
5 4 36 0
5 -4 -36 0
10 4 40 0
10 -4 -40 0
3 5 9 0
3 -5 -9 0
8 5 13 0
8 -5 -13 0
6 5 17 0
6 -5 -17 0
8 5 21 0
8 -5 -21 0
5 5 25 0
5 -5 -25 0
9 5 29 0
9 -5 -29 0
3 5 33 0
3 -5 -33 0
4 5 37 0
4 -5 -37 0
9 5 41 0
9 -5 -41 0
10 6 10 0
10 -6 -10 0
1 6 14 0
1 -6 -14 0
10 6 18 0
10 -6 -18 0
6 6 22 0
6 -6 -22 0
1 6 26 0
1 -6 -26 0
2 6 30 0
2 -6 -30 0
7 6 34 0
7 -6 -34 0
9 6 38 0
9 -6 -38 0
4 6 42 0
4 -6 -42 0
1 7 11 0
1 -7 -11 0
1 7 15 0
1 -7 -15 0
5 7 19 0
5 -7 -19 0
1 7 23 0
1 -7 -23 0
3 7 27 0
3 -7 -27 0
10 7 31 0
10 -7 -31 0
10 7 35 0
10 -7 -35 0
9 7 39 0
9 -7 -39 0
3 8 12 0
3 -8 -12 0
6 8 16 0
6 -8 -16 0
4 8 20 0
4 -8 -20 0
8 8 24 0
8 -8 -24 0
6 8 28 0
6 -8 -28 0
7 8 32 0
7 -8 -32 0
6 8 36 0
6 -8 -36 0
1 8 40 0
1 -8 -40 0
5 9 13 0
5 -9 -13 0
10 9 17 0
10 -9 -17 0
10 9 21 0
10 -9 -21 0
8 9 25 0
8 -9 -25 0
3 9 29 0
3 -9 -29 0
8 9 33 0
8 -9 -33 0
7 9 37 0
7 -9 -37 0
4 9 41 0
4 -9 -41 0
7 10 14 0
7 -10 -14 0
2 10 18 0
2 -10 -18 0
5 10 22 0
5 -10 -22 0
9 10 26 0
9 -10 -26 0
9 10 30 0
9 -10 -30 0
4 10 34 0
4 -10 -34 0
3 10 38 0
3 -10 -38 0
9 10 42 0
9 -10 -42 0
4 11 15 0
4 -11 -15 0
7 11 19 0
7 -11 -19 0
10 11 23 0
10 -11 -23 0
6 11 27 0
6 -11 -27 0
7 11 31 0
7 -11 -31 0
9 11 35 0
9 -11 -35 0
5 11 39 0
5 -11 -39 0
10 12 16 0
10 -12 -16 0
4 12 20 0
4 -12 -20 0
9 12 24 0
9 -12 -24 0
7 12 28 0
7 -12 -28 0
10 12 32 0
10 -12 -32 0
5 12 36 0
5 -12 -36 0
3 12 40 0
3 -12 -40 0
10 13 17 0
10 -13 -17 0
10 13 21 0
10 -13 -21 0
2 13 25 0
2 -13 -25 0
9 13 29 0
9 -13 -29 0
7 13 33 0
7 -13 -33 0
5 13 37 0
5 -13 -37 0
7 13 41 0
7 -13 -41 0
3 14 18 0
3 -14 -18 0
8 14 22 0
8 -14 -22 0
4 14 26 0
4 -14 -26 0
5 14 30 0
5 -14 -30 0
3 14 34 0
3 -14 -34 0
2 14 38 0
2 -14 -38 0
3 14 42 0
3 -14 -42 0
6 15 19 0
6 -15 -19 0
5 15 23 0
5 -15 -23 0
2 15 27 0
2 -15 -27 0
10 15 31 0
10 -15 -31 0
2 15 35 0
2 -15 -35 0
2 15 39 0
2 -15 -39 0
5 16 20 0
5 -16 -20 0
8 16 24 0
8 -16 -24 0
10 16 28 0
10 -16 -28 0
10 16 32 0
10 -16 -32 0
7 16 36 0
7 -16 -36 0
4 16 40 0
4 -16 -40 0
8 17 21 0
8 -17 -21 0
4 17 25 0
4 -17 -25 0
3 17 29 0
3 -17 -29 0
3 17 33 0
3 -17 -33 0
6 17 37 0
6 -17 -37 0
3 17 41 0
3 -17 -41 0
2 18 22 0
2 -18 -22 0
8 18 26 0
8 -18 -26 0
2 18 30 0
2 -18 -30 0
8 18 34 0
8 -18 -34 0
2 18 38 0
2 -18 -38 0
8 18 42 0
8 -18 -42 0
1 19 23 0
1 -19 -23 0
10 19 27 0
10 -19 -27 0
1 19 31 0
1 -19 -31 0
6 19 35 0
6 -19 -35 0
2 19 39 0
2 -19 -39 0
3 20 24 0
3 -20 -24 0
8 20 28 0
8 -20 -28 0
8 20 32 0
8 -20 -32 0
7 20 36 0
7 -20 -36 0
10 20 40 0
10 -20 -40 0
7 21 25 0
7 -21 -25 0
8 21 29 0
8 -21 -29 0
1 21 33 0
1 -21 -33 0
2 21 37 0
2 -21 -37 0
6 21 41 0
6 -21 -41 0
1 22 26 0
1 -22 -26 0
1 22 30 0
1 -22 -30 0
3 22 34 0
3 -22 -34 0
5 22 38 0
5 -22 -38 0
9 22 42 0
9 -22 -42 0
6 23 27 0
6 -23 -27 0
8 23 31 0
8 -23 -31 0
1 23 35 0
1 -23 -35 0
2 23 39 0
2 -23 -39 0
10 24 28 0
10 -24 -28 0
3 24 32 0
3 -24 -32 0
9 24 36 0
9 -24 -36 0
2 24 40 0
2 -24 -40 0
10 25 29 0
10 -25 -29 0
1 25 33 0
1 -25 -33 0
9 25 37 0
9 -25 -37 0
1 25 41 0
1 -25 -41 0
1 26 30 0
1 -26 -30 0
10 26 34 0
10 -26 -34 0
6 26 38 0
6 -26 -38 0
2 26 42 0
2 -26 -42 0
2 27 31 0
2 -27 -31 0
4 27 35 0
4 -27 -35 0
10 27 39 0
10 -27 -39 0
9 28 32 0
9 -28 -32 0
4 28 36 0
4 -28 -36 0
6 28 40 0
6 -28 -40 0
6 29 33 0
6 -29 -33 0
5 29 37 0
5 -29 -37 0
7 29 41 0
7 -29 -41 0
1 30 34 0
1 -30 -34 0
6 30 38 0
6 -30 -38 0
8 30 42 0
8 -30 -42 0
4 31 35 0
4 -31 -35 0
10 31 39 0
10 -31 -39 0
6 32 36 0
6 -32 -36 0
9 32 40 0
9 -32 -40 0
8 33 37 0
8 -33 -37 0
7 33 41 0
7 -33 -41 0
1 34 38 0
1 -34 -38 0
8 34 42 0
8 -34 -42 0
9 35 39 0
9 -35 -39 0
10 36 40 0
10 -36 -40 0
9 37 41 0
9 -37 -41 0
9 38 42 0
9 -38 -42 0
